
******************************************************************************
This program contains Ipopt, a library for large-scale nonlinear optimization.
 Ipopt is released as open source code under the Eclipse Public License (EPL).
         For more information visit http://projects.coin-or.org/Ipopt
******************************************************************************

This is Ipopt version 3.12.6, running with linear solver ma57.

Number of nonzeros in equality constraint Jacobian...:        0
Number of nonzeros in inequality constraint Jacobian.:     7014
Number of nonzeros in Lagrangian Hessian.............:        9

Total number of variables............................:        7
                     variables with only lower bounds:        0
                variables with lower and upper bounds:        0
                     variables with only upper bounds:        0
Total number of equality constraints.................:        0
Total number of inequality constraints...............:     1002
        inequality constraints with only lower bounds:     1002
   inequality constraints with lower and upper bounds:        0
        inequality constraints with only upper bounds:        0

iter    objective    inf_pr   inf_du lg(mu)  ||d||  lg(rg) alpha_du alpha_pr  ls
   0  0.0000000e+00 2.00e+00 9.98e-01  -1.0 0.00e+00    -  0.00e+00 0.00e+00   0
   1  8.0842605e-03 1.99e+00 1.88e+00  -1.0 8.01e-01  -4.0 2.24e-02 1.24e-02h  1
   2  8.3788337e-03 1.98e+00 2.01e+02  -1.0 1.03e+00   1.8 2.13e-02 3.47e-04f  1
   3  1.5142978e-02 1.97e+00 1.09e+03  -1.0 1.31e+00   2.3 1.37e-02 6.83e-03f  1
   4  9.9239049e-01 0.00e+00 2.60e+05  -1.0 1.50e+00   2.7 3.54e-01 1.00e+00f  1
   5  9.9250256e-01 0.00e+00 9.05e+06  -1.0 1.18e+00   5.8 8.68e-01 7.10e-03h  1
   6  9.9762862e-01 0.00e+00 1.88e+07  -1.0 1.17e+00   6.3 9.41e-01 3.15e-01h  1
   7  1.0015077e+00 0.00e+00 9.09e+06  -1.0 9.17e-01   6.7 1.00e+00 1.00e+00h  1
Reallocating memory for MA57: lfact (1654513)
   8  9.8444309e-01 0.00e+00 1.76e+09  -1.0 1.32e-01   8.0 1.04e-02 1.00e+00h  1
   9  9.8395816e-01 0.00e+00 1.67e+07  -1.0 8.23e-03   7.5 1.10e-02 1.00e+00f  1
iter    objective    inf_pr   inf_du lg(mu)  ||d||  lg(rg) alpha_du alpha_pr  ls
  10  9.8395834e-01 0.00e+00 1.30e+02  -1.0 9.68e-06   7.1 1.00e+00 1.00e+00h  1
  11  9.8395886e-01 0.00e+00 1.13e+01  -1.0 2.96e-06   6.6 1.00e+00 1.00e+00f  1
  12  9.8396025e-01 0.00e+00 9.98e+00  -1.0 7.85e-06   6.1 1.00e+00 1.00e+00f  1
  13  9.8396351e-01 0.00e+00 7.69e+00  -1.0 1.82e-05   5.6 1.00e+00 1.00e+00f  1
  14  9.8397030e-01 0.00e+00 5.16e+00  -1.0 3.66e-05   5.1 1.00e+00 1.00e+00f  1
  15  9.8398385e-01 0.00e+00 3.25e+00  -1.0 6.91e-05   4.7 1.00e+00 1.00e+00f  1
  16  9.8401123e-01 0.00e+00 2.01e+00  -1.0 1.28e-04   4.2 1.00e+00 1.00e+00f  1
  17  9.8406921e-01 0.00e+00 1.25e+00  -1.0 2.40e-04   3.7 1.00e+00 1.00e+00f  1
  18  9.8420085e-01 0.00e+00 8.13e-01  -1.0 4.68e-04   3.2 1.00e+00 1.00e+00f  1
  19  9.8426429e-01 0.00e+00 1.13e-01  -1.7 1.96e-04   2.8 1.00e+00 1.00e+00f  1
iter    objective    inf_pr   inf_du lg(mu)  ||d||  lg(rg) alpha_du alpha_pr  ls
  20  9.8429186e-01 0.00e+00 2.19e-02  -2.5 1.13e-04   2.3 1.00e+00 1.00e+00h  1
  21  9.8428190e-01 0.00e+00 1.50e-03  -3.8 2.32e-05   1.8 1.00e+00 1.00e+00h  1
  22  9.8423599e-01 0.00e+00 1.02e-03  -5.7 4.72e-05   1.3 1.00e+00 1.00e+00h  1
  23  9.8409776e-01 0.00e+00 1.01e-03  -5.7 1.40e-04   0.9 1.00e+00 1.00e+00f  1
  24  9.8368323e-01 0.00e+00 1.01e-03  -5.7 4.21e-04   0.4 1.00e+00 1.00e+00f  1
  25  9.8300021e-01 0.00e+00 1.22e-03  -5.7 1.28e-03  -0.1 1.00e+00 5.52e-01f  1
  26  9.8004836e-01 0.00e+00 1.63e-03  -5.7 6.15e-03  -0.6 1.00e+00 1.00e+00f  1
  27  9.7099114e-01 0.00e+00 1.59e-03  -5.7 1.79e-02  -1.1 1.00e+00 1.00e+00h  1
  28  9.4387626e-01 0.00e+00 1.60e-03  -5.7 5.42e-02  -1.5 1.00e+00 1.00e+00h  1
  29  9.3365822e-01 0.00e+00 1.61e-03  -5.7 2.04e-02  -1.1 1.00e+00 1.00e+00h  1
iter    objective    inf_pr   inf_du lg(mu)  ||d||  lg(rg) alpha_du alpha_pr  ls
  30  9.0299692e-01 0.00e+00 1.61e-03  -5.7 6.13e-02  -1.6 1.00e+00 1.00e+00h  1
  31  8.9143705e-01 0.00e+00 1.62e-03  -5.7 2.31e-02  -1.2 1.00e+00 1.00e+00h  1
  32  8.5674998e-01 0.00e+00 1.62e-03  -5.7 6.94e-02  -1.6 1.00e+00 1.00e+00h  1
  33  8.4366841e-01 0.00e+00 1.63e-03  -5.7 2.62e-02  -1.2 1.00e+00 1.00e+00h  1
  34  8.0441609e-01 0.00e+00 1.63e-03  -5.7 7.85e-02  -1.7 1.00e+00 1.00e+00h  1
  35  7.8960865e-01 0.00e+00 1.64e-03  -5.7 2.96e-02  -1.3 1.00e+00 1.00e+00h  1
  36  7.4517915e-01 0.00e+00 1.64e-03  -5.7 8.89e-02  -1.7 1.00e+00 1.00e+00h  1
  37  7.2841434e-01 0.00e+00 1.65e-03  -5.7 3.35e-02  -1.3 1.00e+00 1.00e+00h  1
  38  6.7811423e-01 0.00e+00 1.65e-03  -5.7 1.01e-01  -1.8 1.00e+00 1.00e+00h  1
  39  6.5912991e-01 0.00e+00 1.66e-03  -5.7 3.80e-02  -1.4 1.00e+00 1.00e+00h  1
iter    objective    inf_pr   inf_du lg(mu)  ||d||  lg(rg) alpha_du alpha_pr  ls
  40  6.0217483e-01 0.00e+00 1.66e-03  -5.7 1.14e-01  -1.8 1.00e+00 1.00e+00h  1
  41  5.8067481e-01 0.00e+00 1.67e-03  -5.7 4.30e-02  -1.4 1.00e+00 1.00e+00h  1
  42  5.1618041e-01 0.00e+00 1.67e-03  -5.7 1.29e-01  -1.9 1.00e+00 1.00e+00h  1
  43  4.9183151e-01 0.00e+00 1.68e-03  -5.7 4.87e-02  -1.5 1.00e+00 1.00e+00h  1
  44  4.1880794e-01 0.00e+00 1.68e-03  -5.7 1.46e-01  -1.9 1.00e+00 1.00e+00h  1
  45  3.9123941e-01 0.00e+00 1.69e-03  -5.7 5.51e-02  -1.5 1.00e+00 1.00e+00h  1
  46  3.0860209e-01 0.00e+00 1.69e-03  -5.7 1.65e-01  -2.0 1.00e+00 1.00e+00h  1
  47  2.7741738e-01 0.00e+00 1.70e-03  -5.7 6.24e-02  -1.6 1.00e+00 1.00e+00h  1
  48  2.6574267e-01 0.00e+00 1.70e-03  -5.7 2.33e-02  -1.1 1.00e+00 1.00e+00h  1
  49  2.3074644e-01 0.00e+00 1.70e-03  -5.7 7.00e-02  -1.6 1.00e+00 1.00e+00h  1
iter    objective    inf_pr   inf_du lg(mu)  ||d||  lg(rg) alpha_du alpha_pr  ls
  50  2.1759676e-01 0.00e+00 1.70e-03  -5.7 2.63e-02  -1.2 1.00e+00 1.00e+00h  1
  51  1.7822591e-01 0.00e+00 1.70e-03  -5.7 7.87e-02  -1.7 1.00e+00 1.00e+00h  1
  52  1.6344943e-01 0.00e+00 1.70e-03  -5.7 2.96e-02  -1.2 1.00e+00 1.00e+00h  1
  53  1.1939544e-01 0.00e+00 1.69e-03  -5.7 8.81e-02  -1.7 1.00e+00 1.00e+00h  1
  54  1.0652104e-01 1.51e-05 1.66e-03  -5.7 3.25e-02  -1.3 1.00e+00 7.93e-01h  1
  55  9.5035005e-02 7.67e-04 5.11e-01  -5.7 7.55e-02  -1.8 7.96e-02 1.00e+00f  1
  56  8.7646290e-02 3.82e-04 2.57e-01  -5.7 3.15e-02  -1.3 1.00e+00 4.69e-01h  1
  57  8.7960753e-02 2.70e-04 4.60e-01  -5.7 1.43e-02  -0.9 1.00e+00 2.91e-01h  1
  58  8.7694675e-02 0.00e+00 7.89e-02  -5.7 5.21e-02  -1.4 7.91e-01 1.00e+00f  1
  59  8.7028782e-02 0.00e+00 3.73e-03  -5.7 3.55e-02  -1.0 1.00e+00 1.00e+00h  1
iter    objective    inf_pr   inf_du lg(mu)  ||d||  lg(rg) alpha_du alpha_pr  ls
  60  8.6772778e-02 0.00e+00 4.19e-03  -5.7 1.46e-02  -0.5 1.00e+00 1.00e+00h  1
  61  8.6184682e-02 2.35e-04 7.08e-03  -5.7 7.27e-02  -1.0 1.00e+00 1.00e+00h  1
  62  8.5618185e-02 0.00e+00 6.55e-03  -5.7 2.63e-02  -0.6 1.00e+00 1.00e+00h  1
  63  8.3581932e-02 8.97e-04 1.05e-02  -5.7 1.24e-01  -1.1 1.00e+00 1.00e+00h  1
  64  8.2030131e-02 0.00e+00 6.55e-03  -5.7 3.05e-02  -0.6 1.00e+00 1.00e+00h  1
  65  7.7705442e-02 7.17e-04 1.07e-02  -5.7 1.36e-01  -1.1 1.00e+00 1.00e+00h  1
  66  7.5332864e-02 0.00e+00 5.76e-03  -5.7 3.04e-02  -0.7 1.00e+00 1.00e+00h  1
  67  6.8763401e-02 2.76e-04 9.12e-03  -5.7 1.29e-01  -1.2 1.00e+00 1.00e+00h  1
  68  6.3771185e-02 1.10e-04 8.87e-03  -5.7 4.61e-01  -1.6 1.93e-01 1.81e-01h  1
  69  5.9267673e-02 0.00e+00 2.83e-01  -5.7 9.67e-02  -1.2 5.37e-02 4.98e-01h  1
iter    objective    inf_pr   inf_du lg(mu)  ||d||  lg(rg) alpha_du alpha_pr  ls
  70  5.7226040e-02 0.00e+00 2.60e-01  -5.7 3.10e-01  -1.7 2.34e-02 7.53e-02f  1
  71  5.5809445e-02 3.59e-04 4.20e-01  -5.7 1.98e+00  -2.2 1.61e-03 1.72e-02f  1
  72  5.2954125e-02 3.14e-04 7.96e-01  -5.7 3.36e-01  -1.8 7.36e-03 9.83e-02f  1
  73  5.2164975e-02 3.66e-04 7.79e-01  -5.7 9.82e-01  -2.2 7.36e-03 8.91e-03f  1
  74  5.0205315e-02 3.51e-04 6.93e-01  -5.7 3.72e-01  -1.8 7.80e-03 6.13e-02f  1
  75  4.7644208e-02 6.95e-04 1.78e+00  -5.7 9.73e-01  -2.3 3.61e-04 3.92e-02f  1
  76  4.2838609e-02 7.90e-04 1.27e+00  -5.7 4.20e-01  -1.9 5.55e-03 1.43e-01f  1
  77  3.8511347e-02 1.94e-03 1.18e+00  -5.7 1.22e+00  -2.3 4.81e-04 5.46e-02f  1
  78  2.9238463e-02 3.79e-03 8.14e-01  -5.7 4.95e-01  -1.9 9.52e-03 2.77e-01f  1
  79  2.1135608e-02 1.40e-02 7.02e-01  -5.7 1.56e+00  -2.4 5.72e-03 1.22e-01f  1
iter    objective    inf_pr   inf_du lg(mu)  ||d||  lg(rg) alpha_du alpha_pr  ls
  80  1.2602722e-02 2.38e-01 1.39e+00  -5.7 8.19e-01  -2.0 1.75e-03 1.00e+00f  1
  81  6.6715237e-03 1.60e-01 9.69e-01  -5.7 3.69e-01  -1.5 1.00e+00 3.01e-01h  1
  82  3.9849719e-03 1.24e-01 7.22e-01  -5.7 5.05e-01  -2.0 8.40e-03 2.54e-01h  1
  83  3.4292786e-03 7.99e-02 4.38e-01  -5.7 2.41e-01  -2.5 4.13e-01 3.94e-01h  1
  84  3.3947019e-03 1.02e-01 4.33e-01  -5.7 1.49e+01  -3.0 1.83e-02 9.82e-03h  3
  85  3.4298754e-03 1.03e-01 4.30e-01  -5.7 6.85e+00  -2.5 2.45e-03 7.15e-03h  5
  86  2.9170805e-03 2.88e-02 1.33e-01  -5.7 1.02e-01  -2.1 9.64e-01 6.93e-01h  1
  87  2.8077375e-03 1.11e-02 4.12e-02  -5.7 1.56e-01  -2.6 6.03e-01 1.00e+00h  1
  88  2.7282155e-03 5.32e-03 5.68e-04  -5.7 1.34e-01  -3.1 9.77e-01 1.00e+00h  1
  89  2.7023482e-03 1.05e-03 1.41e-04  -5.7 6.07e-02  -2.6 1.00e+00 1.00e+00h  1
iter    objective    inf_pr   inf_du lg(mu)  ||d||  lg(rg) alpha_du alpha_pr  ls
  90  2.2391212e-03 6.33e-01 4.30e-03  -5.7 7.78e-01  -3.1 6.99e-01 1.00e+00h  1
  91  1.6468598e-03 6.64e-02 1.30e-02  -5.7 7.38e-01  -3.6 6.53e-01 1.00e+00h  1
  92  1.7761356e-03 1.18e-01 1.48e-02  -5.7 7.19e-01  -4.1 4.05e-01 1.00e+00h  1
  93  1.8257722e-03 1.17e-01 9.36e-03  -5.7 1.61e+00  -4.5 1.00e+00 5.00e-01h  2
  94  1.8877844e-03 1.71e-03 4.66e-04  -5.7 2.97e-01  -4.1 1.00e+00 1.00e+00h  1
  95  1.8449259e-03 1.39e-03 6.13e-04  -5.7 1.81e-01    -  1.00e+00 1.00e+00h  1
  96  1.8588998e-03 3.01e-02 2.02e-04  -5.7 3.63e-01  -4.6 1.00e+00 1.00e+00h  1
  97  1.8468946e-03 2.18e-01 5.39e-04  -5.7 7.58e-01    -  1.00e+00 1.00e+00h  1
  98  1.8499448e-03 9.11e-03 2.96e-04  -5.7 2.83e-01  -5.1 1.00e+00 1.00e+00h  1
  99  1.8490329e-03 4.88e-03 1.13e-04  -5.7 1.81e-01    -  1.00e+00 1.00e+00h  1
iter    objective    inf_pr   inf_du lg(mu)  ||d||  lg(rg) alpha_du alpha_pr  ls
 100  1.8484686e-03 1.31e-02 5.17e-05  -5.7 4.21e-01    -  1.00e+00 1.00e+00h  1
 101  1.8489624e-03 0.00e+00 1.18e-05  -5.7 9.39e-02    -  1.00e+00 1.00e+00h  1
 102  1.8489854e-03 0.00e+00 2.38e-07  -5.7 3.72e-02    -  1.00e+00 1.00e+00h  1
 103  1.8489875e-03 0.00e+00 5.53e-10  -5.7 8.20e-04    -  1.00e+00 1.00e+00h  1
 104  1.2198439e-04 6.75e-09 4.82e-06  -8.6 1.85e-03    -  1.00e+00 9.36e-01h  1
 105  7.3274627e-05 1.39e-04 1.02e-02  -8.6 1.10e-01    -  1.00e+00 4.41e-01h  1
 106  5.6899100e-05 9.28e-05 3.69e-02  -8.6 2.28e-02    -  1.00e+00 3.54e-01h  1
 107  5.3845506e-05 8.51e-05 3.27e-02  -8.6 7.16e-02    -  2.73e-01 1.69e-01h  1
 108  4.7397792e-05 8.52e-05 7.44e-02  -8.6 5.75e-02    -  1.15e-01 4.75e-01f  1
 109  4.5334428e-05 5.66e-05 1.58e-01  -8.6 2.68e-02    -  1.11e-01 4.13e-01f  1
iter    objective    inf_pr   inf_du lg(mu)  ||d||  lg(rg) alpha_du alpha_pr  ls
 110  4.4634593e-05 3.29e-05 9.56e-02  -8.6 1.21e-02    -  2.75e-01 4.48e-01f  1
 111  4.4592574e-05 2.16e-05 6.53e-02  -8.6 5.78e-04    -  2.68e-01 3.43e-01f  2
 112  4.4511358e-05 0.00e+00 2.58e-09  -8.6 4.04e-04    -  1.00e+00 1.00e+00h  1

Number of Iterations....: 112

                                   (scaled)                 (unscaled)
Objective...............:   4.4511357987266534e-05    4.4511357987266534e-05
Dual infeasibility......:   2.5839904781860268e-09    2.5839904781860268e-09
Constraint violation....:   0.0000000000000000e+00    0.0000000000000000e+00
Complementarity.........:   3.1404063046017554e-09    3.1404063046017554e-09
Overall NLP error.......:   3.1404063046017554e-09    3.1404063046017554e-09


Number of objective function evaluations             = 126
Number of objective gradient evaluations             = 113
Number of equality constraint evaluations            = 0
Number of inequality constraint evaluations          = 126
Number of equality constraint Jacobian evaluations   = 0
Number of inequality constraint Jacobian evaluations = 113
Number of Lagrangian Hessian evaluations             = 112
Total CPU secs in IPOPT (w/o function evaluations)   =      0.247
Total CPU secs in NLP function evaluations           =      0.070

EXIT: Optimal Solution Found.

************************ CUTEst statistics ************************


 Package used            :  IPOPT
 Problem                 :  OET7      
 # variables             =               7
 # constraints           =            1002
 # objective functions   =        0.2400000E+03
 # objective gradients   =        0.1140000E+03
 # objective Hessians    =        0.1130000E+03
 # Hessian-vector prdct  =        0.0000000E+00
 # constraints functions =        0.2410000E+03
 # constraints gradients =        0.1150000E+03
 # constraints Hessians  =        0.1130000E+03
 Exit code               =               0
 Final f                 =   0.4451136E-04
 Set up time             =            0.07 seconds
 Solve time              =            0.50 seconds


******************************************************************

System Time =       0.2989999950 s.
